0 0 0 0
0 1 1 0
0 2 0 0
0 3 1 0
0 4 1 1
0 5 2 1
0 6 2 4
0 7 1 4
0 8 0 6
0 9 0 14
0 10 2 4
0 11 2 15
0 12 2 1
0 13 1 9
0 14 2 12
0 15 2 10
0 16 0 6
0 17 0 7
0 18 2 4
0 19 1 6
0 20 0 13
0 21 1 14
0 22 0 14
0 23 0 18
0 24 0 19
0 25 1 11
0 26 0 18
0 27 1 19
0 28 0 24
0 29 2 17
0 30 0 23
0 31 0 25
